28
26
22
30
41
46
57
39
0
55
25
27
0
26
0
20
35
28
28
0
30
68
43
45
25
0
57
53
20
46
36
24
0
26
26
27
0
39
39
23
64
0
34
15
22
41
0
64
59
25
88
0
32
20
29
21
31
27
28
37
0
0
28
21
34
58
37
62
0
33
52
29
30
23
0
19
46
30
71
22
39
33
0
20
46
136
51
0
42
35
43
42
30
56
0
0
31
35
23
0
